Route 1: 5 3 7 8 10 11 9 6 4 12 2 1

Route 2: 13 17 18 19 15 16 14 23 31

Route 3: 20 24 25 27 29 30 28 26 22 21

Route 4: 32 33 35 38 37 36 34

Route 5: 43 42 41 40 44 46 39

Route 6: 45 48 50 49 47

Vehicles: 6

Distance: 542.77

